Route #1: 1 44 5 29 6 19 8 40 51 24 1
Route #2: 1 53 31 17 7 33 11 16 36 30 21 1
Route #3: 1 45 10 34 22 27 46 37 50 1
Route #4: 1 35 42 48 26 47 43 52 25 3 13 1
Route #5: 1 54 23 4 32 20 1
Route #6: 1 15 28 38 49 41 9 1
Route #7: 1 14 12 39 18 2 1
cost: 1290
